logs/2026_03_24_00_33_56_set_set_set_s007_g001_max.log
[2026-03-24T00:33:56.827Z] Pipeline "set_set_set_s007_g001" → 2026_03_24_00_33_56_set_set_set_s007_g001_max.sol
Set parameter WLSAccessID
Set parameter WLSSecret
Set parameter LicenseID to value 2792458
Set parameter LogFile to value "gurobi.log"
Using license file /root/gurobi.lic
Academic license 2792458 - for non-commercial use only - registered to an___@studenti.unipg.it

Gurobi Optimizer version 13.0.1 build v13.0.1rc0 (linux64 - "Ubuntu 24.04.4 LTS")
Copyright (c) 2026, Gurobi Optimization, LLC

Warning: Duplicate section found (read 'binary') - Is a variable name equal to an LP file format keyword?
Warning: Duplicate section found (read 'binary') - Is a variable name equal to an LP file format keyword?
Warning: Duplicate section found (read 'binary') - Is a variable name equal to an LP file format keyword?
Warning: Duplicate section found (read 'binary') - Is a variable name equal to an LP file format keyword?
Warning: Duplicate section found (read 'binary') - Is a variable name equal to an LP file format keyword?
Warning: Duplicate section found (read 'binary') - Is a variable name equal to an LP file format keyword?
Warning: Duplicate section found (read 'binary') - Is a variable name equal to an LP file format keyword?
Warning: Duplicate section found (read 'binary') - Is a variable name equal to an LP file format keyword?
Warning: Duplicate section found (read 'binary') - Is a variable name equal to an LP file format keyword?
Warning: Duplicate section found (read 'binary') - Is a variable name equal to an LP file format keyword?
Warning: Further warnings of this type will be omitted.
Read LP format model from file /root/bgw/data/uploads/2026_03_24_00_33_56_set_set_set_s007_g001_max.lp
Reading time = 0.00 seconds
: 880 rows, 153 columns, 2383 nonzeros

Using Gurobi shared library /opt/gurobi1301/linux64/lib/libgurobi.so.13.0.1

CPU model: AMD EPYC-Genoa Processor, instruction set [SSE2|AVX|AVX2|AVX512]
Thread count: 16 physical cores, 16 logical processors, using up to 16 threads

Academic license 2792458 - for non-commercial use only - registered to an___@studenti.unipg.it
Optimize a model with 880 rows, 153 columns and 2383 nonzeros (Max)
Model fingerprint: 0x089396fd
Model has 24 linear objective coefficients
Variable types: 36 continuous, 117 integer (117 binary)
Coefficient statistics:
  Matrix range     [1e+00, 1e+01]
  Objective range  [1e+00, 1e+00]
  Bounds range     [1e+00, 1e+00]
  RHS range        [1e+00, 1e+01]

Found heuristic solution: objective 24.0000000
Presolve removed 384 rows and 54 columns
Presolve time: 0.00s
Presolved: 496 rows, 99 columns, 1578 nonzeros
Variable types: 0 continuous, 99 integer (89 binary)
Found heuristic solution: objective 44.0000000

Root relaxation: objective 1.110000e+02, 83 iterations, 0.00 seconds (0.00 work units)

    Nodes    |    Current Node    |     Objective Bounds      |     Work
 Expl Unexpl |  Obj  Depth IntInf | Incumbent    BestBd   Gap | It/Node Time

     0     0  111.00000    0   52   44.00000  111.00000   152%     -    0s
H    0     0                      46.0000000  111.00000   141%     -    0s
H    0     0                      47.0000000  111.00000   136%     -    0s
H    0     0                      48.0000000  111.00000   131%     -    0s
H    0     0                      50.0000000  111.00000   122%     -    0s
     0     0  111.00000    0   52   50.00000  111.00000   122%     -    0s
H    0     0                      51.0000000  111.00000   118%     -    0s
H    0     0                      54.0000000  111.00000   106%     -    0s
     0     0  111.00000    0   50   54.00000  111.00000   106%     -    0s
     0     0  111.00000    0   50   54.00000  111.00000   106%     -    0s
H    0     0                      55.0000000  111.00000   102%     -    0s
     0     0  111.00000    0   42   55.00000  111.00000   102%     -    0s
     0     0  111.00000    0   42   55.00000  111.00000   102%     -    0s
     0     0  111.00000    0   52   55.00000  111.00000   102%     -    0s
     0     0  111.00000    0   38   55.00000  111.00000   102%     -    0s
     0     0  111.00000    0   52   55.00000  111.00000   102%     -    0s
H    0     0                      56.0000000  111.00000  98.2%     -    0s
     0     0  111.00000    0   50   56.00000  111.00000  98.2%     -    0s
     0     0  111.00000    0   50   56.00000  111.00000  98.2%     -    0s
     0     0  111.00000    0   52   56.00000  111.00000  98.2%     -    0s
     0     0  111.00000    0   40   56.00000  111.00000  98.2%     -    0s
     0     0  111.00000    0   51   56.00000  111.00000  98.2%     -    0s
     0     0  111.00000    0   51   56.00000  111.00000  98.2%     -    0s
     0     0  111.00000    0   51   56.00000  111.00000  98.2%     -    0s
     0     0  111.00000    0   51   56.00000  111.00000  98.2%     -    0s
     0     0  111.00000    0   38   56.00000  111.00000  98.2%     -    0s
     0     2  111.00000    0   38   56.00000  111.00000  98.2%     -    0s
H  382   317                      59.0000000  110.60000  87.5%  34.4    0s
H 1612   862                      61.0000000  106.18000  74.1%  26.3    0s
H12520  2870                      62.0000000   84.92000  37.0%  18.9    1s

Cutting planes:
  Inf proof: 4

Explored 67659 nodes (1240570 simplex iterations) in 3.44 seconds (4.71 work units)
Thread count was 16 (of 16 available processors)

Solution count 10: 62 61 59 ... 47

Optimal solution found (tolerance 1.00e-04)
Best objective 6.200000000000e+01, best bound 6.200000000000e+01, gap 0.0000%

Wrote result file '/root/bgw/data/results/2026_03_24_00_33_56_set_set_set_s007_g001_max.sol'

